c ren 1 -> 1
c ren 2 -> 2
c ren 3 -> 3
c ren 4 -> 4
c ren 5 -> 5
c ren 6 -> 6
c ren 7 -> 7
c ren 8 -> 8
c ren 9 -> 9
c ren 10 -> 10
c ren 11 -> 11
c ren 12 -> 12
c ren 13 -> 13
c ren 14 -> 14
c ren 15 -> 15
c ren 16 -> 16
c ren 17 -> 17
c ren 18 -> 18
c ren 19 -> 19
c ren 20 -> 20
c ren 21 -> 21
c ren 22 -> 22
c ren 23 -> 23
c ren 24 -> 24
c ren 25 -> 25
c ren 26 -> 26
c ren 27 -> 27
c ren 28 -> 28
c ren 29 -> 29
c ren 30 -> 30
c ren 31 -> 31
c ren 32 -> 32
c ren 33 -> 33
c ren 34 -> 34
c ren 35 -> 35
c ren 36 -> 36
c ren 37 -> 37
c ren 38 -> 38
c ren 39 -> 39
c ren 40 -> 40
c ren 41 -> 41
c ren 42 -> 42
c ren 43 -> 43
c ren 44 -> 44
c ren 45 -> 45
c ren 46 -> 46
c ren 47 -> 47
c ren 48 -> 48
c ren 49 -> 49
c ren 50 -> 50
c ren 51 -> 51
c ren 52 -> 52
c ren 53 -> 53
c ren 54 -> 54
c ren 55 -> 55
c ren 56 -> 56
c ren 57 -> 57
c ren 58 -> 58
c ren 59 -> 59
c ren 60 -> 60
c ren 61 -> 61
c ren 62 -> 62
c ren 63 -> 63
c ren 64 -> 64
c ren 65 -> 65
c ren 66 -> 66
c ren 67 -> 67
c ren 68 -> 68
c ren 69 -> 69
c ren 70 -> 70
c ren 71 -> 71
c ren 72 -> 72
c ren 73 -> 73
c ren 74 -> 74
c ren 75 -> 75
c ren 78 -> 76
c ren 81 -> 77
c ren 91 -> 78
c ren 96 -> 79
c ren 108 -> 80
c ren 111 -> 81
c ren 119 -> 82
c ren 126 -> 83
c ren 127 -> 84
c ren 149 -> 85
c ren 162 -> 86
c ren 165 -> 87
c ren 168 -> 88
c ren 171 -> 89
c ren 186 -> 90
c ren 199 -> 91
c ren 204 -> 92
c ren 208 -> 93
c ren 210 -> 94
c ren 211 -> 95
c ren 212 -> 96
c ren 213 -> 97
c ren 214 -> 98
c ren 215 -> 99
c ren 216 -> 100
c ren 217 -> 101
c ren 218 -> 102
c ren 219 -> 103
c ren 220 -> 104
c ren 221 -> 105
c ren 222 -> 106
c ren 223 -> 107
c ren 224 -> 108
c ren 225 -> 109
c ren 226 -> 110
c ren 227 -> 111
c ren 228 -> 112
c ren 272 -> 113
c ren 273 -> 114
c ren 302 -> 115
c ren 303 -> 116
c ren 304 -> 117
c ren 305 -> 118
c ren 306 -> 119
c ren 307 -> 120
c ren 308 -> 121
c ren 309 -> 122
c ren 310 -> 123
c ren 311 -> 124
c ren 312 -> 125
c ren 313 -> 126
c ren 314 -> 127
c ren 315 -> 128
c ren 316 -> 129
c ren 317 -> 130
c ren 318 -> 131
c ren 319 -> 132
c ren 320 -> 133
c ren 321 -> 134
c ren 322 -> 135
c ren 323 -> 136
c ren 324 -> 137
c ren 325 -> 138
c ren 326 -> 139
c ren 327 -> 140
c ren 328 -> 141
c ren 329 -> 142
c ren 330 -> 143
c ren 331 -> 144
c ren 332 -> 145
c ren 333 -> 146
c ren 334 -> 147
c ren 335 -> 148
c ren 336 -> 149
c ren 337 -> 150
c ren 338 -> 151
c ren 339 -> 152
c ren 340 -> 153
c ren 341 -> 154
c ren 342 -> 155
p cnf 155 420
a 1 2 3 4 5 6 7 8 9 10 11 12 13 14 15 16 17 18 19 20 21 22 23 24 25 26 27 28 29 30 31 32 33 34 35 36 37 38 39 40 41 42 43 44 45 46 47 48 49 50 51 52 53 54 55 56 57 58 59 60 61 62 63 64 65 66 67 68 69 70 71 72 73 74 0
d 94 33 34 0
d 95 37 38 0
d 96 35 36 0
d 97 45 46 0
d 98 51 52 53 54 55 56 57 58 59 60 0
d 99 51 52 53 54 55 56 57 58 59 60 0
d 100 49 50 0
d 101 39 40 0
d 102 43 44 0
d 103 47 48 0
d 104 41 42 0
d 105 61 62 63 64 65 66 67 68 69 70 71 72 73 74 0
d 106 61 62 63 64 65 66 67 68 69 70 71 72 73 74 0
d 107 61 62 63 64 65 66 67 68 69 70 71 72 73 74 0
d 108 61 62 63 64 65 66 67 68 69 70 71 72 73 74 0
d 109 61 62 63 64 65 66 67 68 69 70 71 72 73 74 0
d 110 61 62 63 64 65 66 67 68 69 70 71 72 73 74 0
d 111 61 62 63 64 65 66 67 68 69 70 71 72 73 74 0
d 112 61 62 63 64 65 66 67 68 69 70 71 72 73 74 0
e 75 76 77 78 79 80 81 82 83 84 85 86 87 88 89 90 91 92 93 113 114 115 116 117 118 119 120 121 122 123 124 125 126 127 128 129 130 131 132 133 134 135 136 137 138 139 140 141 142 143 144 145 146 147 148 149 150 151 152 153 154 155 0
-11 -75 0
27 -75 0
10 -27 -70 75 76 101 102 -153 0
10 -11 27 -78 -104 -114 0
-10 -76 0
26 -76 0
5 -23 -24 -82 -83 0
-16 23 28 75 76 77 79 80 81 83 84 86 87 88 89 90 -91 93 0
-76 -93 0
-7 -12 -23 75 76 77 80 81 84 86 -90 92 0
-7 23 83 -91 -92 0
-9 -77 0
25 -77 0
9 -25 77 0
-77 83 -91 -92 0
-11 27 70 -153 0
-12 28 -93 0
-12 -27 28 -69 75 76 101 -152 0
-11 27 79 83 -91 -92 0
-10 26 70 -153 0
9 78 0
-25 78 0
-77 -93 0
-76 79 83 -91 -92 0
10 -75 -78 -79 0
-75 -93 0
-76 -78 -79 0
-10 26 101 109 110 112 114 0
78 79 0
10 -69 76 101 104 -152 0
11 -26 -70 75 76 101 102 -153 0
8 -23 71 -82 -96 -154 0
-7 -16 28 75 76 77 79 80 81 83 84 86 87 88 89 90 -91 93 0
12 -28 79 83 -91 -92 0
-7 -23 28 75 76 77 80 81 84 86 -90 92 0
10 -28 -78 -104 -114 0
-12 28 79 83 -91 -92 0
-10 26 -69 101 -152 0
11 -12 28 -69 75 76 101 -152 0
10 11 12 -78 -79 0
12 -28 -93 0
-7 -12 -16 -23 75 76 77 79 80 81 83 84 86 87 88 89 90 -91 93 0
7 -12 23 75 76 77 80 81 84 86 -90 92 0
-86 -93 0
7 -23 -93 0
5 8 -23 -82 -83 0
7 -21 -23 -82 -83 0
-6 -80 0
22 -80 0
-80 -93 0
-5 21 72 -155 0
-5 -81 0
21 -81 0
8 71 83 -96 -154 0
8 -82 83 -96 -113 0
-8 24 -93 0
5 -8 24 80 81 95 111 112 113 0
6 82 0
-22 82 0
-81 -83 0
-5 21 83 0
-80 -96 -113 0
-81 -91 -92 0
7 -23 83 -91 -92 0
7 8 -82 -96 -113 0
82 -93 0
-26 69 -75 -78 -104 -152 0
-5 21 71 -96 -154 0
5 -7 23 -82 -83 111 112 113 0
-8 -21 24 80 81 95 111 112 113 0
72 82 -155 0
-8 -84 0
24 -84 0
69 -78 -101 -152 0
-24 83 -96 -113 0
83 -84 -91 -92 0
72 -80 -155 0
81 82 83 0
8 -23 -82 -96 -113 0
-21 -71 81 82 -154 0
72 -84 -155 0
-89 -93 0
1 3 4 -85 91 0
-2 3 4 17 19 20 -85 -86 0
3 4 -17 -20 -85 86 0
-1 -2 -4 19 20 -91 0
-1 3 -4 18 19 -20 -85 -86 0
-1 -2 3 4 19 20 -85 -86 0
1 2 -18 91 0
-1 -3 -4 18 20 -91 0
-2 18 -85 0
1 -3 19 -85 -86 91 0
-1 85 -91 0
1 -17 -54 -137 0
3 -17 -19 -85 91 0
-21 -24 -72 80 81 -82 84 95 -155 0
3 -17 -19 -85 86 0
1 3 -19 -85 86 0
-1 -17 54 -137 0
2 85 0
-18 85 0
1 17 54 -137 0
-1 17 -91 0
-2 -3 17 19 -91 0
2 -17 -18 91 0
1 -17 91 0
-2 -4 17 19 -20 -85 -86 0
-3 -17 19 -85 -86 91 0
3 -17 -20 -85 91 0
2 -17 -18 86 0
1 2 -18 86 0
1 4 -20 -85 86 -91 0
3 4 -17 -85 91 0
1 3 -20 -85 91 0
1 -19 -20 -85 91 0
-1 -2 -3 -4 20 -91 0
-1 -2 3 -4 19 -20 -85 -86 0
17 85 -91 0
1 -3 19 -85 86 -91 0
-1 -2 -3 4 -19 20 -85 -86 0
-2 -3 -4 17 20 -91 0
-2 -3 4 17 -19 20 -85 -86 0
-1 17 -86 0
-1 -2 -3 -4 -19 -20 -85 -86 0
-1 -2 -3 19 -85 -91 0
1 4 -19 -85 91 0
1 4 -19 -20 -85 86 0
-86 -91 -92 0
-15 -87 0
31 -87 0
13 16 -30 -31 -90 0
68 -87 -151 0
-14 -88 0
30 -88 0
14 -30 88 0
-31 -65 -148 0
-88 -93 0
23 -79 80 81 84 86 92 0
-13 -89 0
29 -89 0
13 14 -87 -90 0
15 16 -29 32 -68 87 89 103 -151 0
15 61 87 -144 0
-15 31 88 89 90 0
13 -88 -90 0
-14 30 89 90 0
-29 -88 -90 0
-13 29 90 0
13 15 16 -30 -90 0
-21 -80 -82 -83 0
14 16 -29 -31 -90 0
15 -16 -29 -32 -68 87 89 103 -151 0
-87 -93 0
15 -65 -148 0
13 15 -16 -32 -68 87 89 103 -151 0
-13 29 68 -151 0
13 63 89 -146 0
14 -66 -149 0
-5 21 -96 -113 0
14 -29 -87 -90 0
16 -32 68 -151 0
-16 -29 -31 -32 -68 87 89 103 -151 0
7 -12 23 32 75 76 77 79 80 81 83 84 86 87 88 89 90 -91 93 0
-77 -78 -79 0
-15 31 68 -151 0
-7 -8 -23 24 80 81 83 0
-90 -93 0
-13 29 -63 -146 0
7 71 -82 -95 -96 -154 0
1 3 4 -20 -85 86 0
-1 17 -54 -137 0
91 -93 0
14 -29 -31 -32 -90 0
79 83 90 -91 -92 0
5 -71 81 82 -154 0
-14 30 66 -149 0
-79 -93 0
-83 -93 0
91 92 0
5 7 8 -82 -83 0
68 -89 -151 0
-7 -79 80 81 84 86 92 0
72 -81 -155 0
-81 -96 -113 0
15 16 -29 -30 -90 0
-16 32 87 88 89 90 0
71 -81 -96 -154 0
92 -106 107 108 110 112 -115 0
-3 4 17 18 -19 20 -85 -86 0
11 -27 75 0
12 -26 -27 -78 -79 0
5 81 82 111 112 113 0
10 -26 76 0
-76 -78 -114 0
12 -26 69 -78 -104 -152 0
-92 -98 -112 -115 0
10 -11 27 69 -78 -104 -152 0
82 83 -91 -92 0
-16 32 68 -151 0
-78 -101 -114 0
16 -32 -93 0
-9 25 -78 0
11 -26 -28 -78 -79 0
10 12 -78 -104 -114 0
23 28 32 75 76 77 79 80 81 83 84 86 87 88 89 90 -91 93 0
70 -76 -153 0
7 23 28 75 76 77 80 81 84 86 -90 92 0
-30 -66 -149 0
-26 -28 69 -78 -104 -152 0
7 -24 71 -82 -96 -154 0
-10 26 79 83 -91 -92 0
69 -76 -78 -152 0
-12 -27 28 75 76 101 109 110 112 114 0
12 -26 -78 -104 -114 0
78 109 110 112 114 0
5 -24 -72 80 81 -82 84 95 -155 0
-26 -75 -78 -79 0
6 -22 80 0
7 8 -21 -82 -83 0
5 -21 81 0
8 -21 -23 -82 -83 0
5 -80 -83 0
-84 -93 0
7 -24 -82 -96 -113 0
-6 22 -82 0
5 -7 23 80 81 83 0
-23 -82 -95 -96 -113 0
-8 -21 24 -71 80 81 95 -154 0
-26 -28 -78 -104 -114 0
-8 24 83 -91 -92 0
-7 23 -93 0
5 7 -23 -82 -83 0
-71 96 -154 0
-21 -23 -24 -82 -83 0
7 -21 -24 -82 -83 0
-80 83 -91 -92 0
-92 -98 -107 113 114 -115 0
92 98 -99 -115 0
-92 99 106 113 114 -115 0
-112 -113 0
96 111 112 113 0
-111 -113 0
-110 -114 0
-112 -114 0
10 69 -75 -78 -104 -152 0
-109 -114 0
-92 99 -108 113 114 -115 0
-92 99 -107 113 114 -115 0
92 -114 -115 0
-92 -98 -108 113 114 -115 0
1 3 -19 -85 91 0
15 -31 87 0
13 -29 89 0
-15 31 65 -148 0
-7 -12 -23 32 75 76 77 79 80 81 83 84 86 87 88 89 90 -91 93 0
13 15 16 32 -68 87 89 103 -151 0
-63 -89 -146 0
10 76 101 104 109 110 112 114 0
10 11 -70 75 76 101 102 -153 0
-7 -21 23 -71 -82 -83 -154 0
8 -24 84 0
5 -8 24 -71 80 81 95 -154 0
5 -7 23 -71 -82 -83 -154 0
-92 -98 106 113 114 -115 0
-92 -98 -110 113 -115 0
92 -113 -115 0
-93 105 -115 0
93 -105 -115 0
-3 -33 -116 0
-4 17 18 19 -20 -85 -86 0
13 -16 -31 -32 -68 87 89 103 -151 0
3 33 -116 0
-19 -34 -117 0
-29 -30 -87 -90 0
13 14 -31 -32 -90 0
19 34 -117 0
-5 -35 -118 0
16 -29 -31 32 -68 87 89 103 -151 0
13 -30 -87 -90 0
5 35 -118 0
-21 -36 -119 0
-3 17 18 19 -85 -91 0
21 36 -119 0
-7 -37 -120 0
4 -17 -19 -20 -85 86 0
13 -30 -31 -32 -90 0
7 37 -120 0
-23 -38 -121 0
-29 63 89 -146 0
4 -17 -19 -85 91 0
23 38 -121 0
-9 -39 -122 0
-3 -4 17 18 -20 -85 -86 0
5 7 -24 -82 -83 0
9 39 -122 0
-25 -40 -123 0
13 14 15 -32 -90 0
-11 -26 27 69 -78 -104 -152 0
25 40 -123 0
-11 -41 -124 0
-92 99 -112 -115 0
-23 -24 -82 -96 -113 0
11 41 -124 0
-27 -42 -125 0
-31 61 87 -144 0
27 42 -125 0
-12 -43 -126 0
13 15 -30 -32 -90 0
12 43 -126 0
-28 -44 -127 0
-17 -19 -20 -85 91 0
-29 -30 -31 -32 -90 0
28 44 -127 0
-13 -45 -128 0
11 -12 28 75 76 101 109 110 112 114 0
-1 -3 4 18 -19 20 -85 -86 0
13 45 -128 0
-29 -46 -129 0
-7 28 32 75 76 77 79 80 81 83 84 86 87 88 89 90 -91 93 0
4 -17 -20 86 -91 0
29 46 -129 0
-14 -47 -130 0
-3 -17 19 86 -91 0
-1 3 4 18 19 20 -85 -86 0
14 47 -130 0
-30 -48 -131 0
15 -29 -30 -32 -90 0
30 48 -131 0
-16 -49 -132 0
5 8 -72 80 81 -82 84 95 -155 0
-21 81 82 111 112 113 0
16 49 -132 0
-32 -50 -133 0
-1 -3 18 19 -85 -91 0
32 50 -133 0
-51 -94 -134 0
10 -28 69 -78 -104 -152 0
-26 -69 76 101 104 -152 0
51 94 -134 0
-2 -52 -135 0
-89 -90 0
10 12 69 -78 -104 -152 0
2 52 -135 0
-18 -53 -136 0
-4 17 18 19 20 -91 0
7 8 71 -82 -96 -154 0
18 53 -136 0
1 -17 86 0
-2 -4 17 19 20 -91 0
-2 -3 -4 17 -20 -85 -86 0
-4 -55 -138 0
-11 -26 27 -78 -104 -114 0
-26 -75 -78 -104 -114 0
4 55 -138 0
-20 -56 -139 0
-1 -4 18 19 20 -91 0
16 -29 -30 -31 -90 0
20 56 -139 0
-3 -57 -140 0
10 -27 -28 -78 -79 0
3 57 -140 0
-19 -58 -141 0
14 15 -29 -32 -90 0
19 58 -141 0
-1 -59 -142 0
-26 76 101 104 109 110 112 114 0
-3 -4 17 18 20 -91 0
1 59 -142 0
-17 -60 -143 0
10 11 -28 -78 -79 0
71 -82 83 -95 -96 -154 0
17 60 -143 0
-12 28 75 76 77 79 0
-7 -21 23 -82 -83 111 112 113 0
14 15 16 -29 -90 0
13 16 -31 32 -68 87 89 103 -151 0
-62 -103 -145 0
-23 -24 71 -82 -96 -154 0
11 12 -26 -78 -79 0
62 103 -145 0
70 -75 -153 0
-82 83 -95 -96 -113 0
7 -12 -16 23 75 76 77 79 80 81 83 84 86 87 88 89 90 -91 93 0
-64 -100 -147 0
64 100 -147 0
13 14 15 16 -90 0
3 4 17 18 19 20 -85 -86 0
-15 31 -61 -144 0
13 14 16 -31 -90 0
-24 71 -82 83 -96 -154 0
10 12 -27 -78 -79 0
-67 -97 -150 0
-7 -21 23 80 81 83 0
-92 99 -110 113 -115 0
67 97 -150 0
-61 -87 -144 0
-83 86 92 0
-11 27 76 77 79 0
-75 79 83 -91 -92 0
-10 26 77 79 0
-69 78 -152 0
-26 -27 -28 -78 -79 0
10 -75 -78 -104 -114 0
-26 -27 -70 75 76 101 102 -153 0
70 -101 -153 0
-23 71 -82 -95 -96 -154 0
7 -82 -95 -96 -113 0
-1 -3 -4 18 -19 -20 -85 -86 0
8 -21 -72 80 81 -82 84 95 -155 0
71 -80 -82 -96 -154 0
-81 -93 0
-8 24 72 -155 0
7 -8 23 24 80 81 83 0
-73 74 98 -99 115 116 117 118 119 120 121 122 123 124 125 126 127 128 129 130 131 132 133 134 135 136 137 138 139 140 141 142 143 144 145 146 147 148 149 150 151 152 153 154 155 0
70 -102 -153 0
73 -74 -98 99 115 116 117 118 119 120 121 122 123 124 125 126 127 128 129 130 131 132 133 134 135 136 137 138 139 140 141 142 143 144 145 146 147 148 149 150 151 152 153 154 155 0
-73 -74 -98 -99 115 116 117 118 119 120 121 122 123 124 125 126 127 128 129 130 131 132 133 134 135 136 137 138 139 140 141 142 143 144 145 146 147 148 149 150 151 152 153 154 155 0
72 -95 -155 0
68 -103 -151 0
73 74 98 99 115 116 117 118 119 120 121 122 123 124 125 126 127 128 129 130 131 132 133 134 135 136 137 138 139 140 141 142 143 144 145 146 147 148 149 150 151 152 153 154 155 0
